NAME: line_45_92
TYPE: TSP
COMMENT: srandom_45_92
DIMENSION: 45
EDGE_WEIGHT_TYPE: EUC_2D
NODE_COORD_SECTION
1 3777 2111
2 1967 1662
3 4509 4448
4 1446 354
5 3541 112
6 4029 2639
7 786 3852
8 240 2736
9 3074 901
10 3221 4759
11 4473 1384
12 3802 4196
13 1887 1931
14 545 4578
15 1954 4170
16 3064 4792
17 3704 1958
18 3676 1874
19 685 2499
20 4079 278
21 4320 2237
22 1439 166
23 1823 1180
24 264 1969
25 323 2087
26 4686 4863
27 731 538
28 3128 3746
29 1336 4989
30 3131 4824
31 3140 4704
32 1879 1105
33 696 1030
34 3861 2306
35 4609 882
36 821 4845
37 1627 747
38 4104 3538
39 502 3266
40 113 4931
41 1205 4204
42 904 771
43 4741 1760
44 2280 395
45 455 2292
